     60      2     37    209     19
     33     42
     41      9      1     40      9     57     14     15     43     49     50      3     13     10     12     55     44     25     11     38     52     23      5     35     29     14     27     17     32     27     48     45     24      7     46     43     39     41     51     27      9     39     17      8     50     13     57     30      1     53     57     50     29     13     45     35     44      9     14     39     15     45     26     15      6     39     39     45      1     46     30     34     33     52     17     41     22     18     57     43     15     53     49     34     31     51      5     19     50     55     48     59      7      6      5     38     28     20      7     55     36      9     38     15     37     40     15      6     47     30     32     29     59     33      6     18     21     31      9     17     37     53     44     19     51     27      9     33     19     38     31     37      5     57     45     29     56      1     50     56     16     54     31     53     36     11     23     35     17     28     25     35     29     45     57      2     15     21     38     37     16     50     12     40     43      0     57      8     54      1     44      9     23     37     21     27     24      9     31     51     17     10     43     33     16      9     56     28     31     35     49     24     41      2     47     24     18      6     44     31     20     15     45     55     36     32     39     40      8     44     10     47     54     16     42     15     47     48     54     39     56     32     15     12      8     31     42      3      2     57     17     24      9     59     43     15     21     34     43     45     26     59     51     44     39     26     22     34     18     23     27     12     34     47      5     41     19     20     46     38     53     58      9     14      1      5     16     56     46     41     52     14     30     27     21     20     51     33      5     59     47     29     21     24     22     25     42     41     34      8     16      7     56     18      3     34      8     31     21      2     57     13      3     30     34     53     59     57     56      0      6     12     41     50     33     27     11     48     18     56     16     45     13     42     50     34     30     32     47     14     19     55     38      6     37     42     46     51      9     51     20     28     24     18      6     38     21      5      9     24     22     33     47     48      1     17     19     17     44     28     12     16     38     59     48     33     16      3     11      8     39     51     56     36     18     35     55     15     53     47     52     17      8     59      9     26     36     11     21     54     19     37     31     12     13     43     32      9      1     33     38     21     22     45     59     10      0     14      8     34     40     58     18     26     47     56     22     44     57     59      4     12     30     14      8     16     46     27     51     40     52      7     17     30     25     51     12     53     24     26     43     52     50     58     22     34     56     37     47     39     48     35     51      5     56      3     58     22     53     23     27      5     45     37     59     33     39     22     19     15     28     34     49     22     11     18     21      5     19     46     12     51     25     40     38      6      3     11     58     53     17     28      7     35     37     40     44      8     13     56     12     47     34     20      6     30     14     28     48      2     28     35     26      7     32     46     47     34     39     27
     98     20     -2     24    -20     77     64     67    102    -25     87     80     19     82     47    -17    100     85     82     -7     10     86     51    -14    -17     60     -1     -9     -6    -19    -21     79     55     18     70     22     -8     24    -21    -11     81     20     24     23     31     44     97     19     80     -7     91     44     80     -1    -25     46    -23     30     19    -15     45    100     81     19     90     40    -24     -6     92     16     63     96     29      2    -13     61     12     69     34     48
      8     14     15	    360    219      9     30      6      0    138     12      0      0      0     65      0      0      0      0      0      0      0      0      0      0      0      0      0      0      0      0      0    224      0      0      0      0      0      0      0     85      0      0     47      0      0      0     72      0      0      0      0      0     52      0    230      0      0      0      0      0      0      0     57      0      0      0      0
      9     11     15	    453    153     12     32      2    138      0      0      0      0      0      0      0      0     39      0      0    -12      0      0      0      0     18      0      0      0      0    -40    267      0      0      0      0      0      0    132      0      0    303      0      0      0      0      0      0      0      0      0      0      0      0      0      0      0      0      0      0     35      0      0      0    269      0      0      0
      9     15     11	    125     86     26     26      3     12      0      0     42      0      0      0     93      0      0     45     93      0      0      0      0      0     19      0     13     13      0      0      0      0     43      0     95      0      0      0      0     -5      0      0      0      0      0      0     19      0      0      0     20      0      0      0      0      0      0      0      0      0     -2      0      0      0      0      0     62
     10     12     11	    191    100     29     32      1      0      0     42      0      0      0      0      0     78      0      0      0      0      0      0      0      0      0      0    126      0      0      0      0     -5      0      0      0      0      0      0      0      0      0      0    -13      0    144      0      0      0      0      0      0     51      0      0      0      0     59      0      0      0      0      0     -4    128      0      0      0
     12     14     12	    240     51     35     35      6      0      0      0      0      0      0      0    113      0      0      0      0      0      0      0      0      0      0      0      0      0      0    187      0      0      0    -14      0      0      0      0      0      0      0      0      0      0    163     57      0      0      0      0      0      0    123      0      0      0      0     87      0      0      0    142      0    175      0      0      0
     11     15     11	    299    176     11     31      1      0      0      0      0      0      0      0      0      0     63      0      0      0      0      0      0      0      0      0      0      0      0      0      0      0      0    171      0      0     30      0      0      0      0    112      0      0      0    -18      0      0      0      0     83      0      0      0      0      0      0      0      0      0      0     -7      0      0      0      0      0
      8     11     14	    197     82     35     35     10     65      0      0      0      0      0      0      0      0     57      0      0      0      0      0      0     25      0      0      0      0      0     47    -23     42      0      0      0      0      0      0      0      0      0      0      0      0      0      0      0     -8      0      0     11     92    137      0      0      0     57      0      0      0      0      0      0      0      0      0    -19
      6     14     12	    272    151     29     37      4      0      0     93      0    113      0      0      0      0     14      0      0    -22      0      0    181    -11     53    110      0      0      0      0      0      0      0      0      0      0      0    140      0      0      0      0      0      0      0      0      0      0      0      0    -10      1      0      0      0     12      0      0      3      0      0      0      0    113      0    -47      0
     10     12     14	    258    111     14     33      3      0      0      0     78      0      0      0      0      0     84      0      0      0      0      0      0      0    -39      0      0      0      0      0      0      0      0      0      0      0    140    150      0      0      0      0     91      0     76      0      0     48    151    199      0     35      0      0      0      0      0      0      0      0    178    -19     63      0     12      0      0
     10     13     12	    107     55     18     28      2      0     39      0      0      0     63     57     14     84      0      0      0     45      0      0      0      0      0      0      0      0      0     31     54     38      1      0      0      0      0      0      0      0      0      0     -9      0      0      0      0      0      0     74      0      0      0      0      0     22      0      0     57      0      0      0      0      0      0      0      0
     11     10     10	    327    214     18     28      5      0      0     45      0      0      0      0      0      0      0      0      0      0      0     88     31     95      0      0      0      0      0      0      0      0      0      0      0      0      0      0      0      0      0      0      0      0      0      0      0    117      0    215    -22      0      0      0      0    -47      0    194      0      0    116      0      0      0      0      0      0
     11     13     10	    332     61     19     25      8      0      0     93      0      0      0      0      0      0      0      0      0     79      0      0      0      0      0      0      0      0      0     -2    168      0      0      0      0      0      0      0      0     33      0    -58      0      0      0      0     63      0      0      0      0      0    103      0    -60      0      0      0      0      0      0      0      0      0      0      0      0
      6     11     12	    317     55     24     27      8      0    -12      0      0      0      0      0    -22      0     45      0     79      0    238      0      0      0      0      0      0    -34      0      0      0     91    -14      0      0      0      0      0      0      0      0      0      0      0      0      0      0     20      0     80      0      0    -16      0      0     86      0      0      0     63    -16      0      0     27      0     52      0
     10     10     10	    488    103     35     37      4      0      0      0      0      0      0      0      0      0      0      0      0    238      0      0      0      0      0      0      0      0      0     89      0      0     63      0      0      0     75      0      0      0      0      0      0      0      0      0      0      0      0    204      0      0      0      0      0      0      0     91      0      0      0      0      0      0    167    162      0
     12     14     13	    267     83     29     30     10      0      0      0      0      0      0      0      0      0      0     88      0      0      0      0      0      0      0      0    133      0      0    200      0      0      0      0     21      0      0      0      0      0    121      8      0      0     10      0      0      0      0      0      0      2      0      0      0      0      0    158     52      0      0    116      0    169    -44    195     58
      9     10     11	    354    201     17     22     10      0      0      0      0      0      0      0    181      0      0     31      0      0      0      0      0      0      0      0      0     63      0      0      0    106      0      0      0      0      0      0      0      0     60      0      0      0    130      0      0      0      0      0      0      0      0      0     24    141      0    157      0      0      0      0      0    183    195      0      0
      8     10     10	    213     82     27     37      8      0      0      0      0      0      0     25    -11      0      0     95      0      0      0      0      0      0      0      0    133    121      0      0      0      0      0      9      0      0      0      0      0      0      0      0     72     20      0      0      0      0      0      0      0      0     34      0      0      0     94    124      0      0      0      0      0      0      0    104      0
      9     15     15	    246    102     31     37      5      0     18     19      0      0      0      0     53    -39      0      0      0      0      0      0      0      0      0     11    -12      0    182    -42      0      7    125    -23      0    169      2      0     12      0    -37      0      0      0      0      0      0      0      0      0    104      0      0      0    -48     29      0      0      0      0      0    138      0    134      0      0      2
      6     15     14	    187     69     21     30      5      0      0      0      0      0      0      0    110      0      0      0      0      0      0      0      0      0     11      0      0      0     15      0      0      0      0      0      0    -35      0      0     28     75    136      0      0      0      0      0      0      0      0    -16      6    -22      0    126      0     33      0      0    -18      0     92      0      0      0      0      0      0
     10     12     14	    194    104     22     33      8      0      0     13    126      0      0      0      0      0      0      0      0      0      0    133      0    133    -12      0      0      0      0      0      0      0     61      0      0      0      0      0      0      0     73      0      0      0      0     48      0      0    -22      0      0     28      0      0    145      0     23      0      0      0      0      0      0    -35      0      0      0
      6     13     11	    265     74     16     31      8      0      0     13      0      0      0      0      0      0      0      0      0    -34      0      0     63    121      0      0      0      0      0      0      0      0      0      0      0      0      0      0      0      0      0      0     87      0    123      0      0    108      0      0      0    102      0      0      0      0    -37     26      0      0      2      0      0      0     66    184      0
     10     15     14	    281    120     27     27      2      0      0      0      0      0      0      0      0      0      0      0      0      0      0      0      0      0    182     15      0      0      0      0      0     81    -12    130      0      0      0      0     63      0    121    147      0      0    -12      0      0      0     -9      0      0      0      0     19      0      0      0      0      0     44      0    123     76      0      7      0      0
      6     10     14	    426     86     17     34      5      0    -40      0      0    187      0     47      0      0     31      0     -2      0     89    200      0      0    -42      0      0      0      0      0      0     62      0      0      0      0      0      0    306      0      0      0      0      0      0      0      0      0      0      0    110      0      0      0    -74      0      0      0      0      0      0      0      0      0      0    279      0
     11     13     10	    401     97     13     31      6      0    267      0      0      0      0    -23      0      0     54      0    168      0      0      0      0      0      0      0      0      0      0      0      0    -47      0    -16     27    283      0      0      0      0      0      0      0      0      0      0      0      0    -25      0      0      0      0      0      0      0    138      0      0      0    -57      0      0      0      0      0     36
      6     13     13	    371    204     11     13     10    224      0      0     -5      0      0     42      0      0     38      0      0     91      0      0    106      0      7      0      0      0     81     62    -47      0      0      0      0      0      0      0      0      0      0     68      0      0      0    177      0      0      0     84      0      0      0      0      0      0      0      0      0      0      0    120      0    229     58      0      0
      8     10     14	    160     65     26     31      1      0      0     43      0      0      0      0      0      0      1      0      0    -14     63      0      0      0    125      0     61      0    -12      0      0      0      0      0      0      0      0      0      0      0      0      0      0      0     22      0      0      0      0     97      0      0      0      0      0      0      0     34      0      0      0      0      0      0      0      0      0
      7     10     10	    219    108     17     20      6      0      0      0      0    -14    171      0      0      0      0      0      0      0      0      0      0      9    -23      0      0      0    130      0    -16      0      0      0      0      0      0      0      0      0    107    119      0      0      0      0    107      0      0      0      0      0      0     68      0    -17      0     97    131      0      0    -21      0      0     54      0      0
      7     10     10	    190    128     17     19      1      0      0     95      0      0      0      0      0      0      0      0      0      0      0     21      0      0      0      0      0      0      0      0     27      0      0      0      0      0      0      0      0      0      0      0      0     44      0      0    104      0      0     36    110      1      0      0      0     60      0    115      0     83    147      0      0      0      0    134      0
      8     15     14	    374    127     32     33      6      0      0      0      0      0      0      0      0      0      0      0      0      0      0      0      0      0    169    -35      0      0      0      0    283      0      0      0      0      0      0     27      0     14      0      0     34    235    105      0      0    105      0    134    219      0     -2      0      0      0      0    254      0      0      0      0    -29      0     43      0      0
     11     12     13	    308    172     17     33      3      0      0      0      0      0     30      0      0    140      0      0      0      0     75      0      0      0      2      0      0      0      0      0      0      0      0      0      0      0      0      0      0      0      0      0      0      0      0      0     98      0     68      0    205      0      0      0    224      0      0      0    -10      0     66      0     64      0      0      0      0
     11     11     11	    453    242     28     30      2      0    132      0      0      0      0      0    140    150      0      0      0      0      0      0      0      0      0      0      0      0      0      0      0      0      0      0      0     27      0      0     57      0      0     25      0      0      0      0      0      0      0      0      0      0      0    124      0    230      0      0      0      0      0      0      0      0      0      0      0
     11     10     10	    480     79     35     36      5      0      0      0      0      0      0      0      0      0      0      0      0      0      0      0      0      0     12     28      0      0     63    306      0      0      0      0      0      0      0     57      0      0      0      0      0    -17    -54      0      0      0      0      0    -79     62      0      0      0      0      0      0      0     21      0      0     98      0    218      0      0
      6     14     13	    236     60     31     35      4     85      0     -5      0      0      0      0      0      0      0      0     33      0      0      0      0      0      0     75      0      0      0      0      0      0      0      0      0     14      0      0      0      0     33      0      0      0    166      0    171      0      0    101      0      0      0      0      0      0      0      0      0      0      0      0      0      0      0      0      0
     10     13     13	    431    165     17     26      4      0    303      0      0      0      0      0      0      0      0      0      0      0      0    121     60      0    -37    136     73      0    121      0      0      0      0    107      0      0      0      0      0     33      0      0      0      0      0      0      0      0      0      0      0      0      0      0      0      0      0      0      0      0      0     20      0      0      0    175      0
     10     15     13	    348     75     22     37      3      0      0      0      0      0    112      0      0      0      0      0    -58      0      0      8      0      0      0      0      0      0    147      0      0     68      0    119      0      0      0     25      0      0      0      0      0      0    180      0    190      0     18      0      0      0      0      0      0      0     30      0      0      0      0     44    -34      0      0    239      0
     12     11     11	    235    113     27     30      8     47      0      0    -13      0      0      0      0     91     -9      0      0      0      0      0      0     72      0      0      0     87      0      0      0      0      0      0      0     34      0      0      0      0      0      0      0      0      0      0     95      0      0      0      0      0      0      0      0      0      0      0      0      0      0      0      0      0      0      0      0
      7     14     11	    394     87     23     27      5      0      0      0      0      0      0      0      0      0      0      0      0      0      0      0      0     20      0      0      0      0      0      0      0      0      0      0     44    235      0      0    -17      0      0      0      0      0      0      0     60      0      0      0      0     60      0      0      0      0      0      0    155      0      0      0      0     49      0      0      0
      8     14     15	    290    141     26     29      4      0      0      0    144    163      0      0      0     76      0      0      0      0      0     10    130      0      0      0      0    123    -12      0      0      0     22      0      0    105      0      0    -54    166      0    180      0      0      0      0      0      0      0      0      0      0     35      0      0      0      0      0     15      0      0      0      0      0      0      0      0
      6     15     11	    276    119     15     17      8      0      0      0      0     57    -18      0      0      0      0      0      0      0      0      0      0      0      0      0     48      0      0      0      0    177      0      0      0      0      0      0      0      0      0      0      0      0      0      0    155      0      0      0      0      0    161      0      0      0     -7      0    195      0      0     53      0      0    108      0      0
      7     11     10	    330     50     35     36     10     72      0     19      0      0      0      0      0      0      0      0     63      0      0      0      0      0      0      0      0      0      0      0      0      0      0    107    104      0     98      0      0    171      0    190     95     60      0    155      0      0      0      0     31      0    136      0    126      0    237      0      0     38      0      0      0      0      0    157      0
      9     10     11	    210    113     30     32     10      0      0      0      0      0      0     -8      0     48      0    117      0     20      0      0      0      0      0      0      0    108      0      0      0      0      0      0      0    105      0      0      0      0      0      0      0      0      0      0      0      0      0    -22      0      0    -26      0      0      0    147      0      0      0      0     49      0      0      0      0      0
     11     13     10	    223    118     36     36      6      0      0      0      0      0      0      0      0    151      0      0      0      0      0      0      0      0      0      0    -22      0     -9      0    -25      0      0      0      0      0     68      0      0      0      0     18      0      0      0      0      0      0      0      0      0      0      0    -20      5      0      0      0      0      0      0    107      0      0      0      0      0
      6     14     14	    300     65      9     15      5      0      0      0      0      0      0      0      0    199     74    215      0     80    204      0      0      0      0    -16      0      0      0      0      0     84     97      0     36    134      0      0      0    101      0      0      0      0      0      0      0    -22      0      0     39      0      0      0    222      0    142    166      0      0      0      0     80    195      0      0      0
      9     11     13	    424    230     14     21      9      0      0     20      0      0     83     11    -10      0      0    -22      0      0      0      0      0      0    104      6      0      0      0    110      0      0      0      0    110    219    205      0    -79      0      0      0      0      0      0      0     31      0      0     39      0      0      0     26      0      0      0      0      0      0      0      0      0      0      0      0      0
     10     14     15	    129     59     18     24      2      0      0      0     51      0      0     92      1     35      0      0      0      0      0      2      0      0      0    -22     28    102      0      0      0      0      0      0      1      0      0      0     62      0      0      0      0     60      0      0      0      0      0      0      0      0      0      0      0      0      0      0      0     29      0      0      0      0      0      0      0
      6     12     15	    202     91     37     37      3     52      0      0      0    123      0    137      0      0      0      0    103    -16      0      0      0     34      0      0      0      0      0      0      0      0      0      0      0     -2      0      0      0      0      0      0      0      0     35    161    136    -26      0      0      0      0      0      0      0      0      0      0      0      0      0      0      0    136    147      0      0
     11     10     11	    172     70     26     37      1      0      0      0      0      0      0      0      0      0      0      0      0      0      0      0      0      0      0    126      0      0     19      0      0      0      0     68      0      0      0    124      0      0      0      0      0      0      0      0      0      0    -20      0     26      0      0      0      0      0      0      0      0      0     75      0     71      0      0     62      0
      7     10     11	    478    203     35     35      8    230      0      0      0      0      0      0      0      0      0      0    -60      0      0      0     24      0    -48      0    145      0      0    -74      0      0      0      0      0      0    224      0      0      0      0      0      0      0      0      0    126      0      5    222      0      0      0      0      0     11      0      0    192      0      0      0      0    181      0     58      0
      8     11     12	    374    106     29     34      4      0      0      0      0      0      0      0     12      0     22    -47      0     86      0      0    141      0     29     33      0      0      0      0      0      0      0    -17     60      0      0    230      0      0      0      0      0      0      0      0      0      0      0      0      0      0      0      0     11      0    122      0      0      0     55      0    -26      0      0      0      0
     11     10     11	    395    259     36     36     10      0      0      0     59      0      0     57      0      0      0      0      0      0      0      0      0     94      0      0     23    -37      0      0    138      0      0      0      0      0      0      0      0      0      0     30      0      0      0     -7    237    147      0    142      0      0      0      0      0    122      0      0      0      0      0      0      0      0    -24      0      0
      7     15     13	    485    237     12     25      5      0      0      0      0     87      0      0      0      0      0    194      0      0     91    158    157    124      0      0      0     26      0      0      0      0     34     97    115    254      0      0      0      0      0      0      0      0      0      0      0      0      0    166      0      0      0      0      0      0      0      0      0      0     34      0     79    104      0      0      0
      7     12     14	    282     79     12     29      2      0      0      0      0      0      0      0      3      0     57      0      0      0      0     52      0      0      0    -18      0      0      0      0      0      0      0    131      0      0    -10      0      0      0      0      0      0    155     15    195      0      0      0      0      0      0      0      0    192      0      0      0      0      0      0      0      0      0      0      0      0
      7     12     13	    188     60     23     32      8      0     35      0      0      0      0      0      0      0      0      0      0     63      0      0      0      0      0      0      0      0     44      0      0      0      0      0     83      0      0      0     21      0      0      0      0      0      0      0     38      0      0      0      0     29      0      0      0      0      0      0      0      0      0    104      0      0      0      0      0
     11     14     13	    291    148     22     32      2      0      0     -2      0      0      0      0      0    178      0    116      0    -16      0      0      0      0      0     92      0      2      0      0    -57      0      0      0    147      0     66      0      0      0      0      0      0      0      0      0      0      0      0      0      0      0      0     75      0     55      0     34      0      0      0      0      0      0      0     86     35
     11     14     13	    204     65     28     28      8      0      0      0      0    142     -7      0      0    -19      0      0      0      0      0    116      0      0    138      0      0      0    123      0      0    120      0    -21      0      0      0      0      0      0     20     44      0      0      0     53      0     49    107      0      0      0      0      0      0      0      0      0      0    104      0      0      0    -10     94      0      0
      9     10     11	    180    124     27     35      2     57      0      0     -4      0      0      0      0     63      0      0      0      0      0      0      0      0      0      0      0      0     76      0      0      0      0      0      0    -29     64      0     98      0      0    -34      0      0      0      0      0      0      0     80      0      0      0     71      0    -26      0     79      0      0      0      0      0      0     90      0      0
     11     12     15	    354    164     35     37      6      0    269      0    128    175      0      0    113      0      0      0      0     27      0    169    183      0    134      0    -35      0      0      0      0    229      0      0      0      0      0      0      0      0      0      0      0     49      0      0      0      0      0    195      0      0    136      0    181      0      0    104      0      0      0    -10      0      0      0      0      0
      6     15     12	    297    187     29     33      1      0      0      0      0      0      0      0      0     12      0      0      0      0    167    -44    195      0      0      0      0     66      7      0      0     58      0     54      0     43      0      0    218      0      0      0      0      0      0    108      0      0      0      0      0      0    147      0      0      0    -24      0      0      0      0     94     90      0      0      0      0
     10     15     11	    467    114     36     37      8      0      0      0      0      0      0      0    -47      0      0      0      0     52    162    195      0    104      0      0      0    184      0    279      0      0      0      0    134      0      0      0      0      0    175    239      0      0      0      0    157      0      0      0      0      0      0     62     58      0      0      0      0      0     86      0      0      0      0      0      0
     12     13     13	    144     51     17     36      5      0      0     62      0      0      0    -19      0      0      0      0      0      0      0     58      0      0      2      0      0      0      0      0     36      0      0      0      0      0      0      0      0      0      0      0      0      0      0      0      0      0      0      0      0      0      0      0      0      0      0      0      0      0     35      0      0      0      0      0      0